TITL acorr in Pnma
    test4.res
    created by SHELXL-2016/6 at 17:29:25 on 27-Mar-2017
REM Pnma (#62, found as Pmcn in cab setting)
CELL 0.71073  29.859649  17.184790  22.456884  90.0000  90.0000  90.0000
ZERR    2   0.000891   0.000604   0.000890   0.0000   0.0000   0.0000
LATT  1
SYMM -x+1/2,-y, z+1/2
SYMM -x, y+1/2,-z
SYMM  x+1/2,-y+1/2,-z+1/2
SFAC C H P Ni Te
UNIT 680 368 24 12 8

L.S. 20
rem damp 3000
rem shel 999 .8
PLAN  150
BOND $H
LIST 4
acta
MORE -1
CONF
fmap 2
REM <olex2.extras>
REM <HklSrc "%./acorr_a.hkl">
REM </olex2.extras>
simu .01 .02 1
omit 2 15 20

WGHT    0.042300    9.216700
FVAR       0.18657   0.53684   0.41821   0.75041   0.03740
TE1   5    0.091035    0.250000    0.791686    10.50000    0.02629    0.03844 =
         0.03027    0.00000    0.00258    0.00000
TE2   5    0.207960    0.250000    0.704074    10.50000    0.02620    0.02749 =
         0.02669    0.00000    0.00277    0.00000
NI1   4    0.137052    0.323786    0.718586    11.00000    0.02519    0.02262 =
         0.02170   -0.00035   -0.00010    0.00240
P11   3    0.106343    0.337971    0.630199    11.00000    0.02240    0.02545 =
         0.02252    0.00122    0.00022   -0.00036
C111  1    0.130239    0.414404    0.583388    11.00000    0.02166    0.02866 =
         0.02165    0.00089   -0.00532   -0.00142
C112  1    0.173992    0.408888    0.563451    11.00000    0.02909    0.03579 =
         0.04311    0.01650    0.00162    0.00232
AFIX  43
H112  2    0.190580    0.364523    0.572164    11.00000   -1.20000
AFIX   0
C113  1    0.193359    0.467727    0.531037    11.00000    0.03298    0.04843 =
         0.04183    0.01295    0.00277    0.00007
AFIX  43
H113  2    0.222651    0.462159    0.517625    11.00000   -1.20000
AFIX   0
C114  1    0.170209    0.534539    0.518133    11.00000    0.04767    0.03349 =
         0.04968    0.00855    0.00715   -0.01179
AFIX  43
H114  2    0.183375    0.574017    0.495863    11.00000   -1.20000
AFIX   0
C115  1    0.127008    0.541856    0.538904    11.00000    0.04709    0.02511 =
         0.07929    0.00960    0.01025    0.00375
AFIX  43
H115  2    0.110879    0.587000    0.531048    11.00000   -1.20000
AFIX   0
C116  1    0.107438    0.482406    0.571412    11.00000    0.03061    0.02909 =
         0.06111    0.00195    0.01111   -0.00187
AFIX  43
H116  2    0.078343    0.488468    0.585443    11.00000   -1.20000
AFIX   0
C117  1    0.045855    0.354151    0.622338    11.00000    0.02372    0.02589 =
         0.03397    0.00313   -0.00311   -0.00270
C118  1    0.026656    0.360473    0.566552    11.00000    0.03067    0.03850 =
         0.03152    0.00180   -0.00351    0.00342
AFIX  43
H118  2    0.044410    0.355205    0.532766    11.00000   -1.20000
AFIX   0
C119  1   -0.018914    0.374623    0.560487    11.00000    0.03325    0.04686 =
         0.04534   -0.00058   -0.01428    0.00115
AFIX  43
H119  2   -0.031678    0.378141    0.522808    11.00000   -1.20000
AFIX   0
C120  1   -0.045161    0.383436    0.610586    11.00000    0.02891    0.04931 =
         0.06056    0.01066   -0.00459    0.00420
AFIX  43
H120  2   -0.075587    0.393843    0.606719    11.00000   -1.20000
AFIX   0
C121  1   -0.026414    0.376860    0.666022    11.00000    0.03107    0.09011 =
         0.04800    0.00813    0.01481    0.01380
AFIX  43
H121  2   -0.044190    0.381768    0.699820    11.00000   -1.20000
AFIX   0
C122  1    0.019442    0.362773    0.671686    11.00000    0.03227    0.06981 =
         0.03931    0.00937    0.00102    0.01093
AFIX  43
H122  2    0.032162    0.359215    0.709389    11.00000   -1.20000
AFIX   0
C123  1    0.116171    0.250000    0.585558    10.50000    0.02781    0.02841 =
         0.02401    0.00000   -0.00493    0.00000
AFIX  23
H12A  2    0.096296    0.250000    0.551392    10.50000   -1.20000
H12B  2    0.146765    0.250001    0.571035    10.50000   -1.20000
AFIX   0
P13   3    0.143904    0.441889    0.755718    11.00000    0.03022    0.02230 =
         0.02414    0.00060    0.00052   -0.00035
C131  1    0.094881    0.505709    0.750445    11.00000    0.03759    0.02257 =
         0.02418   -0.00208    0.00015    0.00041
C132  1    0.056762    0.491141    0.783386    11.00000    0.03534    0.05084 =
         0.04902    0.02148    0.00173    0.00029
AFIX  43
H132  2    0.056323    0.449123    0.809478    11.00000   -1.20000
AFIX   0
C133  1    0.019246    0.537745    0.778362    11.00000    0.03192    0.05994 =
         0.04815    0.00951    0.00421    0.00733
AFIX  43
H133  2   -0.006033    0.526768    0.801049    11.00000   -1.20000
AFIX   0
C134  1    0.018972    0.599174    0.740745    11.00000    0.04050    0.03989 =
         0.05606    0.00725    0.00499    0.00828
AFIX  43
H134  2   -0.006097    0.631117    0.738219    11.00000   -1.20000
AFIX   0
C135  1    0.055531    0.613850    0.706729    11.00000    0.06000    0.05155 =
         0.09028    0.04254    0.01987    0.02252
AFIX  43
H135  2    0.055337    0.655466    0.680257    11.00000   -1.20000
AFIX   0
C136  1    0.093479    0.566694    0.711302    11.00000    0.04701    0.04823 =
         0.05890    0.02420    0.01739    0.00949
AFIX  43
H136  2    0.118198    0.576910    0.687352    11.00000   -1.20000
AFIX   0
C137  1    0.190100    0.507384    0.734929    11.00000    0.03388    0.02710 =
         0.03050    0.00590    0.00086   -0.00605
C138  1    0.222439    0.483593    0.695337    11.00000    0.03813    0.03480 =
         0.04942    0.01030    0.00765   -0.00243
AFIX  43
H138  2    0.220489    0.434812    0.677594    11.00000   -1.20000
AFIX   0
C139  1    0.257966    0.532491    0.681922    11.00000    0.04408    0.06346 =
         0.06547    0.03024    0.01820   -0.00143
AFIX  43
H139  2    0.279846    0.516177    0.655224    11.00000   -1.20000
AFIX   0
C140  1    0.261127    0.603662    0.707262    11.00000    0.05388    0.06892 =
         0.05948    0.03368   -0.00456   -0.02839
AFIX  43
H140  2    0.284830    0.636320    0.697405    11.00000   -1.20000
AFIX   0
C141  1    0.229740    0.627594    0.747111    11.00000    0.09255    0.05160 =
         0.04459    0.00337   -0.00397   -0.04280
AFIX  43
H141  2    0.232467    0.675987    0.765291    11.00000   -1.20000
AFIX   0
C142  1    0.193617    0.579908    0.760718    11.00000    0.06788    0.03764 =
         0.04508   -0.00601    0.01361   -0.01711
AFIX  43
H142  2    0.171791    0.596913    0.787241    11.00000   -1.20000
AFIX   0
C143  1    0.151083    0.433733    0.836599    11.00000    0.02928    0.02221 =
         0.02658   -0.00309    0.00150   -0.00144
AFIX  23
H14A  2    0.122290    0.423015    0.854841    11.00000   -1.20000
H14B  2    0.161866    0.482936    0.852169    11.00000   -1.20000
AFIX   0
NI2   4    0.174034    0.250000    0.805246    10.50000    0.02184    0.02099 =
         0.02178    0.00000    0.00000    0.00000
P21   3    0.190922    0.355833    0.856850    11.00000    0.02571    0.02482 =
         0.02227   -0.00226   -0.00010   -0.00169
C211  1    0.184634    0.356286    0.937769    11.00000    0.03440    0.01701 =
         0.02354   -0.00200   -0.00186   -0.00266
C212  1    0.142171    0.346004    0.962848    11.00000    0.03257    0.04396 =
         0.02816   -0.00129   -0.00450   -0.01692
AFIX  43
H212  2    0.117441    0.339393    0.938188    11.00000   -1.20000
AFIX   0
C213  1    0.136645    0.345582    1.023791    11.00000    0.03672    0.05202 =
         0.03524   -0.00145    0.00699   -0.01614
AFIX  43
H213  2    0.108193    0.338766    1.039810    11.00000   -1.20000
AFIX   0
C214  1    0.172541    0.355077    1.061016    11.00000    0.05225    0.04351 =
         0.02279   -0.00349    0.00443   -0.01126
AFIX  43
H214  2    0.168490    0.355770    1.102073    11.00000   -1.20000
AFIX   0
C215  1    0.214425    0.363535    1.037211    11.00000    0.03587    0.06743 =
         0.02556   -0.01287   -0.00468    0.00334
AFIX  43
H215  2    0.238999    0.369283    1.062271    11.00000   -1.20000
AFIX   0
C216  1    0.220488    0.363603    0.976327    11.00000    0.02766    0.06535 =
         0.02941   -0.00340    0.00161    0.00921
AFIX  43
H216  2    0.249248    0.368668    0.960909    11.00000   -1.20000
AFIX   0
C217  1    0.245752    0.402821    0.847007    11.00000    0.02802    0.03587 =
         0.02414    0.00032   -0.00298   -0.00537
C218  1    0.279843    0.364819    0.819087    11.00000    0.03413    0.05366 =
         0.05057   -0.01872    0.00488   -0.01574
AFIX  43
H218  2    0.275040    0.314746    0.804735    11.00000   -1.20000
AFIX   0
C219  1    0.321709    0.399124    0.811513    11.00000    0.03325    0.08520 =
         0.06063   -0.02534    0.01477   -0.02293
AFIX  43
H219  2    0.344501    0.372047    0.792347    11.00000   -1.20000
AFIX   0
C220  1    0.329126    0.472030    0.832145    11.00000    0.04768    0.07472 =
         0.03990    0.01153   -0.01050   -0.03234
AFIX  43
H220  2    0.357153    0.494912    0.827705    11.00000   -1.20000
AFIX   0
C221  1    0.295778    0.511290    0.859116    11.00000    0.05646    0.04088 =
         0.08225    0.00044   -0.02158   -0.02162
AFIX  43
H221  2    0.300727    0.561852    0.872330    11.00000   -1.20000
AFIX   0
C222  1    0.254126    0.477197    0.867420    11.00000    0.04185    0.03902 =
         0.06761   -0.00824   -0.00845   -0.00919
AFIX  43
H222  2    0.231651    0.504680    0.886906    11.00000   -1.20000
AFIX   0
resi 0

eqiv $1 -x,-y,2-z

rigu_C70 c1 > c70
bind 1 -1

resi C70 1
rem dfix 1.54 c1 c5
rem dfix 1.38 c2 c12
rem dfix 1.38 c3 c15
rem dfix 1.38 c4 c18
rem dfix 1.38 c7 c8
rem dfix 1.45 c8 c9
rem dfix 1.45 c8 c25
rem dfix 1.45 c9 c10
rem dfix 1.38 c10 c11
rem dfix 1.45 c10 c26
rem dfix 1.45 c12 c13
rem dfix 1.38 c13 c14
rem dfix 1.45 c14 c15
rem dfix 1.45 c14 c33
rem dfix 1.45 c15 c16
rem dfix 1.38 c16 c17
rem dfix 1.45 c16 c34
rem dfix 1.45 c17 c37
rem dfix 1.38 c19 c20
rem dfix 1.45 c19 c38
rem dfix 1.45 c21 c22
rem dfix 1.38 c24 c25
rem dfix 1.38 c24 c45
rem dfix 1.45 c25 c26
rem dfix 1.38 c26 c27
rem dfix 1.38 c28 c29
rem dfix 1.38 c31 c32
rem dfix 1.38 c32 c33
rem dfix 1.38 c34 c35
rem dfix 1.38 c35 c36
rem dfix 1.38 c35 c54
rem dfix 1.38 c38 c39
rem dfix 1.38 c39 c40
rem dfix 1.45 c42 c43
rem dfix 1.45 c45 c46
rem dfix 1.45 c46 c47
rem dfix 1.38 c47 c48
rem dfix 1.45 c48 c69
rem dfix 1.38 c55 c56
rem dfix 1.45 c63 c64
rem dfix 1.45 c64 c69

part 1 40.5
C1    1   -0.015159    0.037395    0.994992    40.50000    0.03374    0.04013 =
         0.03725    0.00685    0.00319    0.00435
part -1 40.5
C2    1   -0.023447    0.080753    1.053287    40.50000    0.03208    0.05048 =
         0.03738    0.00510    0.00542    0.00769
C3    1   -0.068606    0.066480    1.075754    40.50000    0.03101    0.03840 =
         0.03633    0.00443    0.00094    0.00650
C4    1   -0.093023    0.028854    1.025887    40.50000    0.03876    0.03408 =
         0.04443    0.00520   -0.00095    0.00490
C5    1   -0.062624    0.018558    0.979851    40.50000    0.03350    0.03752 =
         0.04494    0.00675   -0.00186    0.00329
C6    1   -0.080926    0.029736    0.921802    40.50000    0.03667    0.02870 =
         0.04261   -0.00234   -0.00172   -0.00226
C7    1   -0.056983    0.070701    0.879131    40.50000    0.03702    0.03390 =
         0.04061   -0.00432    0.00612    0.00210
C8    1   -0.015518    0.107135    0.894838    40.50000    0.03369    0.03963 =
         0.03215   -0.00058    0.01017    0.00498
C9    1    0.002731    0.095186    0.951016    40.50000    0.03382    0.03733 =
         0.03232   -0.00079    0.00569    0.00627
C10   1    0.023319    0.166281    0.968475    40.50000    0.02627    0.04592 =
         0.03733    0.00466   -0.00052    0.00346
C11   1    0.020835    0.191023    1.026219    40.50000    0.03007    0.04781 =
         0.04254   -0.00064   -0.01068    0.00354
C12   1   -0.004415    0.148057    1.069933    40.50000    0.03479    0.05244 =
         0.02946    0.00807   -0.01455    0.01039
C13   1   -0.027405    0.202729    1.108209    40.50000    0.03437    0.05686 =
         0.03559    0.00291   -0.01025   -0.00071
C14   1   -0.068889    0.187487    1.130047    40.50000    0.04233    0.04757 =
         0.01794    0.00483   -0.00181   -0.00206
C15   1   -0.090628    0.116300    1.112000    40.50000    0.03754    0.04159 =
         0.02478    0.00691    0.00734    0.00459
C16   1   -0.137239    0.137285    1.104390    40.50000    0.03339    0.04105 =
         0.03108    0.00636    0.00729    0.00402
C17   1   -0.159200    0.099574    1.060739    40.50000    0.03279    0.03622 =
         0.03307    0.01518    0.00700   -0.00757
C18   1   -0.139034    0.043372    1.020214    40.50000    0.03618    0.03262 =
         0.04138    0.00443   -0.00286   -0.00485
C19   1   -0.157770    0.055816    0.961820    40.50000    0.03238    0.03039 =
         0.04255    0.00815   -0.00018   -0.01233
C20   1   -0.128151    0.047299    0.913002    40.50000    0.03610    0.02896 =
         0.03510   -0.00379   -0.00102   -0.01002
C21   1   -0.131992    0.101576    0.861509    40.50000    0.04183    0.02785 =
         0.03161   -0.00593   -0.00205   -0.00892
C22   1   -0.086612    0.116687    0.841545    40.50000    0.03885    0.03331 =
         0.03266   -0.00960    0.00231   -0.00315
C23   1   -0.076909    0.190712    0.818309    40.50000    0.04326    0.04549 =
         0.01443   -0.00196   -0.00195   -0.00089
C24   1   -0.033559    0.223892    0.834525    40.50000    0.03241    0.03949 =
         0.02671    0.00324    0.00919   -0.00100
C25   1   -0.004639    0.183805    0.872377    40.50000    0.02494    0.03878 =
         0.03533    0.00545    0.01350    0.00857
C26   1    0.019994    0.221634    0.918656    40.50000    0.02364    0.03999 =
         0.04542    0.00967    0.01243   -0.00050
C27   1    0.016541    0.300922    0.928408    40.50000    0.01469    0.03982 =
         0.04465    0.00448    0.01257   -0.01420
C28   1    0.014583    0.331105    0.991708    40.50000    0.02601    0.04755 =
         0.04603   -0.00378   -0.00684   -0.01071
C29   1    0.015772    0.270733    1.037485    40.50000    0.01943    0.05062 =
         0.04892   -0.00224   -0.01495   -0.00196
C30   1   -0.014400    0.279590    1.090133    40.50000    0.02974    0.05262 =
         0.03675   -0.00627   -0.01758   -0.00353
C31   1   -0.044865    0.344562    1.094357    40.50000    0.03842    0.05167 =
         0.03671   -0.01370   -0.01087   -0.00356
C32   1   -0.091862    0.327575    1.116467    40.50000    0.04340    0.04533 =
         0.03064   -0.01571   -0.00223   -0.00293
C33   1   -0.102084    0.257124    1.131153    40.50000    0.05000    0.04845 =
         0.01950   -0.00641   -0.00360    0.00072
C34   1   -0.144703    0.217201    1.116367    40.50000    0.03819    0.04619 =
         0.02956    0.00099    0.01061    0.00188
C35   1   -0.176868    0.263403    1.086090    40.50000    0.03375    0.04610 =
         0.03763   -0.00399    0.01227    0.00123
C36   1   -0.202750    0.219688    1.037663    40.50000    0.02419    0.05336 =
         0.03756    0.00534    0.01385   -0.00279
C37   1   -0.193918    0.145237    1.022482    40.50000    0.02896    0.05000 =
         0.04174    0.00867    0.00010   -0.00431
C38   1   -0.189672    0.114608    0.964382    40.50000    0.02256    0.03079 =
         0.04216    0.00527   -0.00599   -0.01497
C39   1   -0.197220    0.165380    0.913134    40.50000    0.03295    0.03581 =
         0.03330    0.00271   -0.00587   -0.00645
C40   1   -0.167329    0.155366    0.862528    40.50000    0.04871    0.03086 =
         0.03361   -0.00484   -0.00258   -0.00481
C41   1   -0.157884    0.225923    0.828149    40.50000    0.04053    0.03914 =
         0.01767   -0.00338   -0.00913   -0.00004
C42   1   -0.112482    0.237980    0.806452    40.50000    0.04480    0.04397 =
         0.01897    0.00436   -0.00299   -0.00036
C43   1   -0.106479    0.326649    0.806664    40.50000    0.03674    0.04509 =
         0.03051    0.01380    0.00019    0.00004
C44   1   -0.066196    0.356622    0.822348    40.50000    0.03877    0.04003 =
         0.02946    0.00753    0.00839   -0.00165
C45   1   -0.029063    0.306960    0.836527    40.50000    0.03048    0.04015 =
         0.02739    0.00612    0.01712   -0.00228
C46   1   -0.004257    0.343742    0.883051    40.50000    0.02175    0.03542 =
         0.03884    0.00609    0.01937   -0.00502
C47   1   -0.026309    0.418527    0.898705    40.50000    0.03586    0.03121 =
         0.04434    0.00128    0.00726   -0.00644
C48   1   -0.028651    0.441957    0.954557    40.50000    0.03741    0.03704 =
         0.04891   -0.00645   -0.00092   -0.01752
C49   1   -0.009587    0.396296    1.002333    40.50000    0.03278    0.03829 =
         0.04765   -0.01343   -0.00376   -0.01655
C50   1   -0.039434    0.405691    1.056176    40.50000    0.04629    0.04843 =
         0.04566   -0.01196   -0.00364   -0.00742
C51   1   -0.075384    0.454518    1.038164    40.50000    0.04611    0.03094 =
         0.04795   -0.01580   -0.00602   -0.00951
C52   1   -0.118367    0.438240    1.057329    40.50000    0.05110    0.03160 =
         0.04199   -0.02043    0.00630    0.00014
C53   1   -0.125471    0.377387    1.094777    40.50000    0.04296    0.04319 =
         0.03659   -0.01281    0.00303    0.00012
C54   1   -0.169551    0.339743    1.080006    40.50000    0.03048    0.04592 =
         0.03538   -0.00439    0.00582    0.00873
C55   1   -0.187363    0.384831    1.032475    40.50000    0.02894    0.03668 =
         0.04385   -0.00771    0.00762    0.01236
C56   1   -0.211439    0.348641    0.986856    40.50000    0.02051    0.04967 =
         0.04204   -0.00384   -0.00002    0.00867
C57   1   -0.217223    0.266271    0.989180    40.50000    0.01849    0.04683 =
         0.04623    0.00107    0.00871    0.00557
C58   1   -0.214434    0.238102    0.928771    40.50000    0.01490    0.03907 =
         0.04416    0.00466   -0.00552    0.00061
C59   1   -0.206250    0.306065    0.889664    40.50000    0.02720    0.03550 =
         0.04350    0.00137   -0.00332    0.00828
C60   1   -0.178375    0.298286    0.843106    40.50000    0.02603    0.03887 =
         0.02905    0.00548   -0.01301    0.00349
C61   1   -0.147253    0.360209    0.827967    40.50000    0.03548    0.04129 =
         0.03052    0.00833   -0.00868    0.00208
C62   1   -0.145576    0.424190    0.864941    40.50000    0.03926    0.04190 =
         0.04977    0.00347    0.00236    0.00421
C63   1   -0.102974    0.459408    0.877005    40.50000    0.04928    0.04041 =
         0.04792   -0.00168    0.00258    0.00338
C64   1   -0.106042    0.485950    0.936951    40.50000    0.04034    0.03987 =
         0.04438    0.00109    0.00401    0.00053
C65   1   -0.149990    0.471360    0.961617    40.50000    0.03863    0.04146 =
         0.05544   -0.00447    0.00649   -0.00187
C66   1   -0.174567    0.433824    0.914734    40.50000    0.03756    0.03968 =
         0.04647    0.00027   -0.00362    0.00863
C67   1   -0.203125    0.374875    0.927903    40.50000    0.02998    0.03354 =
         0.04511    0.00108   -0.00419    0.01226
C68   1   -0.155949    0.443948    1.019432    40.50000    0.03976    0.02927 =
         0.04649   -0.01585    0.00974    0.00841
C69   1   -0.071707    0.480641    0.973820    40.50000    0.04603    0.03672 =
         0.04768   -0.00695   -0.00070   -0.00194
C70   1   -0.063224    0.423144    0.857997    40.50000    0.03542    0.03859 =
         0.03454    0.00584    0.00656   -0.00496
part 0

resi C70 2
AFIX   6
part -2 -40.5
C1    1   -0.019317    0.336011    0.831961   -40.50000   51.00000
C2    1   -0.036860    0.266402    0.804180   -40.50000   51.00000
C3    1   -0.082788    0.280804    0.787652   -40.50000   51.00000
C4    1   -0.093721    0.360269    0.804513   -40.50000   51.00000
C5    1   -0.054374    0.393698    0.832048   -40.50000   51.00000
C6    1   -0.059118    0.443133    0.880594   -40.50000   51.00000
C7    1   -0.029520    0.435974    0.931095   -40.50000   51.00000
C8    1    0.004140    0.380611    0.931037   -40.50000   51.00000
C9    1    0.009490    0.330054    0.880469   -40.50000   51.00000
C10   1    0.021521    0.254792    0.903302   -40.50000   51.00000
C11   1    0.004667    0.187926    0.877198   -40.50000   51.00000
C12   1   -0.024973    0.193760    0.826239   -40.50000   51.00000
C13   1   -0.058170    0.133610    0.832991   -40.50000   51.00000
C14   1   -0.102152    0.147889    0.816946   -40.50000   51.00000
C15   1   -0.114379    0.223034    0.793614   -40.50000   51.00000
C16   1   -0.158575    0.240850    0.817224   -40.50000   51.00000
C17   1   -0.168719    0.316195    0.833357   -40.50000   51.00000
C18   1   -0.135926    0.376813    0.826902   -40.50000   51.00000
C19   1   -0.140803    0.427601    0.877446   -40.50000   51.00000
C20   1   -0.103146    0.459963    0.903988   -40.50000   51.00000
C21   1   -0.100194    0.464882    0.967966   -40.50000   51.00000
C22   1   -0.054924    0.449607    0.984851   -40.50000   51.00000
C23   1    0.013685    0.337226    0.984169   -40.50000   51.00000
C24   1    0.024305    0.258860    0.967631   -40.50000   51.00000
C25   1   -0.009931    0.124137    0.913864   -40.50000   51.00000
C26   1   -0.048860    0.090739    0.886930   -40.50000   51.00000
C27   1   -0.138355    0.118965    0.853871   -40.50000   51.00000
C28   1   -0.172845    0.176804    0.853536   -40.50000   51.00000
C29   1   -0.193985    0.329925    0.887482   -40.50000   51.00000
C30   1   -0.176534    0.398975    0.914296   -40.50000   51.00000
C31   1   -0.176219    0.407641    0.977181   -40.50000   51.00000
C32   1   -0.136460    0.441676    1.004703   -40.50000   51.00000
C33   1   -0.044426    0.411473    1.038263   -40.50000   51.00000
C34   1   -0.008662    0.353192    1.038844   -40.50000   51.00000
C35   1    0.013167    0.195605    1.004219   -40.50000   51.00000
C36   1   -0.004833    0.125076    0.976437   -40.50000   51.00000
C37   1   -0.083593    0.057771    0.921578   -40.50000   51.00000
C38   1   -0.130043    0.072650    0.904326   -40.50000   51.00000
C39   1   -0.200203    0.188856    0.904810   -40.50000   51.00000
C40   1   -0.211078    0.268456    0.921698   -40.50000   51.00000
C41   1   -0.100765    0.185159    1.146595   -40.50000   51.00000
C42   1   -0.118378    0.115505    1.119074   -40.50000   51.00000
C43   1   -0.164393    0.130230    1.102036   -40.50000   51.00000
C44   1   -0.175092    0.209235    1.118910   -40.50000   51.00000
C45   1   -0.135864    0.243284    1.146450   -40.50000   51.00000
C46   1   -0.125375    0.320615    1.135803   -40.50000   51.00000
C47   1   -0.079810    0.343472    1.124532   -40.50000   51.00000
C48   1   -0.046088    0.288045    1.124484   -40.50000   51.00000
C49   1   -0.056619    0.207976    1.135827   -40.50000   51.00000
C50   1   -0.028574    0.161396    1.097252   -40.50000   51.00000
C51   1   -0.045600    0.094953    1.070837   -40.50000   51.00000
C52   1   -0.091049    0.071159    1.082231   -40.50000   51.00000
C53   1   -0.108389    0.041463    1.026879   -40.50000   51.00000
C54   1   -0.152307    0.055619    1.010158   -40.50000   51.00000
C55   1   -0.180938    0.101276    1.048693   -40.50000   51.00000
C56   1   -0.208536    0.148050    1.010760   -40.50000   51.00000
C57   1   -0.219097    0.223281    1.027194   -40.50000   51.00000
C58   1   -0.201922    0.254218    1.082343   -40.50000   51.00000
C59   1   -0.190900    0.334658    1.071454   -40.50000   51.00000
C60   1   -0.153399    0.367214    1.097441   -40.50000   51.00000
C61   1   -0.125277    0.418971    1.063551   -40.50000   51.00000
C62   1   -0.079791    0.403887    1.080293   -40.50000   51.00000
C63   1   -0.011293    0.291174    1.079998   -40.50000   51.00000
C64   1   -0.000395    0.213606    1.063311   -40.50000   51.00000
C65   1   -0.034947    0.077965    1.009316   -40.50000   51.00000
C66   1   -0.073567    0.045029    0.982503   -40.50000   51.00000
C67   1   -0.162973    0.073649    0.949103   -40.50000   51.00000
C68   1   -0.197790    0.131306    0.949152   -40.50000   51.00000
C69   1   -0.218709    0.284130    0.982966   -40.50000   51.00000
C70   1   -0.201503    0.353225    1.010388   -40.50000   51.00000
part 0
AFIX   0

same_TOL .01 .02 c1 > c7
same_TOL .01 .02 c1 c2 c7 < c3
flat_TOL c1 > c7
rigu_TOL c1 > c7
simu c1_21 > c7_22
dfix_22 2.55 .1 h1a c7

resi TOL 11
part -1 10.5
C1    1   -0.103795   -0.106355    0.783365    10.50000    0.05502    0.11143 =
         0.11610    0.01509    0.02561    0.00650
AFIX 137
H1A   2   -0.087765   -0.087403    0.749265    10.50000   -1.50000
H1B   2   -0.088117   -0.091815    0.818990    10.50000   -1.50000
H1C   2   -0.133301   -0.084182    0.783923    10.50000   -1.50000
AFIX   0
C2    1   -0.107208   -0.192695    0.780136    10.50000    0.02130    0.12353 =
         0.04398    0.00940    0.00484   -0.00469
C3    1   -0.085420   -0.239319    0.821723    10.50000    0.02843    0.10742 =
         0.04988   -0.00690   -0.00999    0.00485
AFIX  43
H3    2   -0.068392   -0.216633    0.851740    10.50000   -1.20000
AFIX   0
C4    1   -0.089111   -0.319197    0.818364    10.50000    0.04560    0.10455 =
         0.05233   -0.01566    0.01086    0.00583
AFIX  43
H4    2   -0.074773   -0.349903    0.846639    10.50000   -1.20000
AFIX   0
C5    1   -0.113401   -0.354019    0.774340    10.50000    0.06281    0.11961 =
         0.04499   -0.01704    0.01829   -0.01274
AFIX  43
H5    2   -0.115376   -0.407948    0.772094    10.50000   -1.20000
AFIX   0
C6    1   -0.134633   -0.308350    0.733874    10.50000    0.07557    0.15304 =
         0.04037   -0.01382    0.00959   -0.01005
AFIX  43
H6    2   -0.151383   -0.331870    0.703957    10.50000   -1.20000
AFIX   0
C7    1   -0.132191   -0.228466    0.735660    10.50000    0.05069    0.15000 =
         0.03218    0.01416   -0.00968   -0.00184
AFIX  43
H7    2   -0.147119   -0.198653    0.707366    10.50000   -1.20000
AFIX   0
resi 0

resi TOL 21
part 1 20.5
C1    1    0.345674   10.250000    0.932621    20.50000    0.07099    0.07014 =
         0.05666    0.00000    0.00649    0.00000
part -1 20.5
bind 1 -1
AFIX 137
H1A   2    0.317834    0.224426    0.924008    20.50000   -1.50000
H1B   2    0.369693    0.222913    0.913182    20.50000   -1.50000
H1C   2    0.344509    0.302661    0.918440    20.50000   -1.50000
AFIX   0
part 1 20.5
C2    1    0.353377   10.250000    0.997848    20.50000    0.04506    0.02574 =
         0.05684    0.00000    0.00149    0.00000
C3    1    0.396757   10.250000    1.020633    20.50000    0.04087    0.02735 =
         0.07014    0.00000    0.00485    0.00000
AFIX  43
H3    2    0.421283    0.250000    0.995109    20.50000   -1.20000
AFIX   0
C4    1    0.402896   10.250000    1.081381    20.50000    0.04546    0.02965 =
         0.07074    0.00000   -0.00504    0.00000
AFIX  43
H4    2    0.431955    0.250000    1.096283    20.50000   -1.20000
AFIX   0
C5    1    0.368121   10.250000    1.120405    20.50000    0.05263    0.06240 =
         0.05794    0.00000   -0.00705    0.00000
AFIX  43
H5    2    0.373144    0.250000    1.161275    20.50000   -1.20000
AFIX   0
C6    1    0.325750   10.250000    1.098094    20.50000    0.04830    0.07116 =
         0.05841    0.00000    0.00069    0.00000
AFIX  43
H6    2    0.301583    0.250000    1.124217    20.50000   -1.20000
AFIX   0
C7    1    0.317902   10.250000    1.037818    20.50000    0.04120    0.03391 =
         0.05531    0.00000    0.00103    0.00000
AFIX  43
H7    2    0.288625    0.250000    1.023687    20.50000   -1.20000
AFIX   0

resi TOL 22
part 2 -20.5
C1    1    0.327274   10.250000    1.137633   -20.50000    0.08605    0.08996 =
         0.05997    0.00000    0.02033    0.00000
part -2 -20.5
bind 2 -2
AFIX 137
H1A   2    0.302273    0.285109    1.138419   -20.50000   -1.50000
H1B   2    0.349214    0.266445    1.166234   -20.50000   -1.50000
H1C   2    0.317247    0.198446    1.147292   -20.50000   -1.50000
AFIX   0
part 2 -20.5
C2    1    0.347526   10.250000    1.077210   -20.50000    0.04632    0.05412 =
         0.05731    0.00000    0.00545    0.00000
C3    1    0.393746   10.250000    1.069939   -20.50000    0.04467    0.03158 =
         0.06539    0.00000   -0.00124    0.00000
AFIX  43
H3    2    0.412479    0.250000    1.103024   -20.50000   -1.20000
AFIX   0
C4    1    0.411606   10.250000    1.013444   -20.50000    0.04242    0.02461 =
         0.07128    0.00000    0.00841    0.00000
AFIX  43
H4    2    0.442576    0.250000    1.009049   -20.50000   -1.20000
AFIX   0
C5    1    0.385516   10.250000    0.963871   -20.50000    0.05352    0.03316 =
         0.05681    0.00000    0.01645    0.00000
AFIX  43
H5    2    0.398188    0.250000    0.926041   -20.50000   -1.20000
AFIX   0
C6    1    0.340333   10.250000    0.971249   -20.50000    0.05345    0.03462 =
         0.05935    0.00000    0.00422    0.00000
AFIX  43
H6    2    0.322048    0.250000    0.937724   -20.50000   -1.20000
AFIX   0
C7    1    0.320774   10.250000    1.026762   -20.50000    0.04293    0.03187 =
         0.05898    0.00000    0.00302    0.00000
AFIX  43
H7    2    0.289749    0.250000    1.030402   -20.50000   -1.20000
AFIX   6

rem simu_MENP c1 > c11
rigu_MENP c1 > c11
rem same_MENP .01 .02 c1 > c11
rem flat_MENP c1 > c11
rem dfix_32 2.55 .05 c3 h1a

resi MENP 31
part -1 30.5
C1    1    0.175714    0.271725    0.442208    30.50000    0.07705    0.05593 =
         0.03431    0.01416   -0.00125    0.00276
AFIX 137
H1A   2    0.194180    0.299788    0.414578    30.50000   -1.50000
H1B   2    0.182004    0.217084    0.439188    30.50000   -1.50000
H1C   2    0.181927    0.289169    0.481970    30.50000   -1.50000
AFIX   5
C2    1    0.127228    0.286027    0.427943    30.50000    0.08248    0.03754 =
         0.01942    0.00360   -0.00484    0.00153
C3    1    0.112072    0.360390    0.423137    30.50000    0.08014    0.03618 =
         0.03039    0.01587    0.00997   -0.00497
AFIX  43
H3    2    0.131851    0.401597    0.428523    30.50000   -1.20000
AFIX   5
C4    1    0.067460    0.375536    0.410298    30.50000    0.08601    0.04755 =
         0.09133   -0.00381   -0.00932   -0.00024
AFIX  43
H4    2    0.057563    0.426727    0.407596    30.50000   -1.20000
AFIX   5
C5    1    0.037599    0.315107    0.401489    30.50000    0.08391    0.03729 =
         0.04177    0.00209   -0.02437    0.00791
AFIX  43
H5    2    0.007829    0.325459    0.392250    30.50000   -1.20000
AFIX   5
C6    1    0.052786    0.237227    0.406670    30.50000    0.07976    0.03402 =
         0.03046   -0.00297   -0.00207    0.00718
C7    1    0.098948    0.222968    0.421050    30.50000    0.07959    0.03066 =
         0.02669   -0.00332    0.00375    0.00696
C8    1    0.114889    0.145010    0.427063    30.50000    0.08390    0.03060 =
         0.03327   -0.00662    0.00935    0.01010
AFIX  43
H8    2    0.144527    0.134786    0.437102    30.50000   -1.20000
AFIX   5
C9    1    0.086160    0.088088    0.417898    30.50000    0.08353    0.03147 =
         0.03476   -0.00883    0.00706    0.01001
AFIX  43
H9    2    0.096091    0.036949    0.420942    30.50000   -1.20000
AFIX   5
C10   1    0.040669    0.102054    0.403568    30.50000    0.08502    0.02838 =
         0.03934   -0.01237   -0.00254    0.00370
AFIX  43
H10   2    0.021616    0.060010    0.397400    30.50000   -1.20000
AFIX   5
C11   1    0.024114    0.176103    0.398593    30.50000    0.08634    0.03584 =
         0.04444   -0.00565   -0.01100    0.00731
AFIX  43
H11   2   -0.005945    0.184608    0.389917    30.50000   -1.20000
AFIX   6

resi MENP 32

part -2 -30.5
C1    1    0.052026    0.389574    0.409490   -30.50000    0.09171    0.05003 =
         0.09038   -0.00340   -0.01484    0.00662
AFIX 137
H1A   2    0.063296    0.439921    0.420380   -30.50000   -1.50000
H1B   2    0.026554    0.377155    0.433780   -30.50000   -1.50000
H1C   2    0.043293    0.390010    0.368351   -30.50000   -1.50000
AFIX   5
C2    1    0.088066    0.329294    0.418856   -30.50000    0.07766    0.03872 =
         0.02873    0.01756    0.01218   -0.00263
C3    1    0.130308    0.352947    0.430469   -30.50000    0.08173    0.04435 =
         0.03011    0.01570    0.00550   -0.00626
AFIX  43
H3    2    0.136693    0.405831    0.432756   -30.50000   -1.20000
AFIX   5
C4    1    0.164362    0.298762    0.439041   -30.50000    0.08215    0.04936 =
         0.03040    0.01111    0.00213   -0.00401
AFIX  43
H4    2    0.193332    0.316032    0.446563   -30.50000   -1.20000
AFIX   5
C5    1    0.155854    0.219448    0.436562   -30.50000    0.08759    0.05135 =
         0.02780    0.00653    0.00771   -0.00190
AFIX  43
H5    2    0.178756    0.183751    0.442999   -30.50000   -1.20000
AFIX   5
C6    1    0.112048    0.193772    0.424161   -30.50000    0.08634    0.03093 =
         0.02961   -0.00772    0.00764    0.00507
C7    1    0.077486    0.250948    0.414385   -30.50000    0.08342    0.03698 =
         0.02779   -0.00074    0.00550    0.00469
C8    1    0.033210    0.226432    0.401258   -30.50000    0.08709    0.03402 =
         0.03803   -0.00515   -0.00757    0.01130
AFIX  43
H8    2    0.010485    0.262217    0.394037   -30.50000   -1.20000
AFIX   5
C9    1    0.025535    0.150715    0.399696   -30.50000    0.08465    0.03633 =
         0.04525   -0.00832   -0.00977    0.01019
AFIX  43
H9    2   -0.003416    0.133596    0.391847   -30.50000   -1.20000
AFIX   5
C10   1    0.059546    0.094283    0.409476   -30.50000    0.08553    0.02198 =
         0.03404   -0.01198    0.00401    0.00869
AFIX  43
H10   2    0.052293    0.041691    0.407947   -30.50000   -1.20000
AFIX   5
C11   1    0.102521    0.115811    0.421033   -30.50000    0.08119    0.03155 =
         0.03502   -0.00755    0.01027    0.00948
AFIX  43
H11   2    0.124802    0.078718    0.426652   -30.50000   -1.20000

AFIX   0
HKLF 4




REM  acorr in Pnma
REM R1 =  0.0594 for    7620 Fo > 4sig(Fo)  and  0.1305 for all   13017 data
REM   1330 parameters refined using   2134 restraints

END  
     
WGHT      0.0424      9.1761 

REM Highest difference peak  1.067,  deepest hole -0.962,  1-sigma level  0.108
Q1    1   0.0680  0.2500  0.7584  10.50000  0.05    1.07
Q2    1   0.2117  0.1813  0.7139  11.00000  0.05    0.79
Q3    1   0.3258  0.2500  0.7968  10.50000  0.05    0.76
Q4    1   0.2099  0.2500  0.8840  10.50000  0.05    0.57
Q5    1   0.0955  0.2059  0.7512  11.00000  0.05    0.56
Q6    1   0.1676  0.2500  0.7792  10.50000  0.05    0.55
Q7    1   0.0594  0.2500  0.6989  10.50000  0.05    0.54
Q8    1   0.1072  0.2500  0.8500  10.50000  0.05    0.54
Q9    1  -0.1013 -0.2500  0.7923  10.50000  0.05    0.53
Q10   1   0.0950  0.2500  0.6196  10.50000  0.05    0.51
Q11   1   0.2477  0.2500  0.6849  10.50000  0.05    0.50
Q12   1   0.2098  0.1887  0.6712  11.00000  0.05    0.49
Q13   1   0.2097  0.2500  0.8212  10.50000  0.05    0.49
Q14   1   0.0292  0.2500  0.9499  10.50000  0.05    0.48
Q15   1   0.2172  0.2091  0.7397  11.00000  0.05    0.48
Q16   1  -0.2139  0.1843  1.0101  11.00000  0.05    0.47
Q17   1   0.1395  0.3196  0.6872  11.00000  0.05    0.46
Q18   1   0.1790  0.2500  0.6083  10.50000  0.05    0.45
Q19   1   0.1593  0.1795  0.7851  11.00000  0.05    0.45
Q20   1   0.1383  0.2869  0.7328  11.00000  0.05    0.45
Q21   1   0.1693  0.4816  0.7460  11.00000  0.05    0.45
Q22   1   0.1705  0.2500  0.7235  10.50000  0.05    0.45
Q23   1   0.1707  0.3933  0.8544  11.00000  0.05    0.44
Q24   1   0.3003  0.2500  0.8257  10.50000  0.05    0.44
Q25   1  -0.2104  0.2500  0.8039  10.50000  0.05    0.44
Q26   1  -0.1908  0.3419  0.8659  11.00000  0.05    0.43
Q27   1   0.0138  0.2500  1.0682  10.50000  0.05    0.43
Q28   1   0.1477  0.4333  0.6605  11.00000  0.05    0.43
Q29   1   0.2530  0.3245  0.7792  11.00000  0.05    0.42
Q30   1   0.1626  0.2195  0.8173  11.00000  0.05    0.42
Q31   1  -0.2258  0.2500  1.0681  10.50000  0.05    0.42
Q32   1  -0.0307  0.1164  1.0916  11.00000  0.05    0.41
Q33   1   0.0286  0.5992  0.7095  11.00000  0.05    0.41
Q34   1   0.1814  0.2500  0.9090  10.50000  0.05    0.41
Q35   1   0.1063  0.2500  0.4800  10.50000  0.05    0.41
Q36   1   0.2764  0.2500  0.8653  10.50000  0.05    0.41
Q37   1   0.0895  0.5276  0.7781  11.00000  0.05    0.41
Q38   1  -0.0999  0.2500  0.9888  10.50000  0.05    0.40
Q39   1  -0.0495  0.2500  0.7437  10.50000  0.05    0.40
Q40   1   0.2105  0.3528  0.6616  11.00000  0.05    0.40
Q41   1  -0.1214  0.2500  1.0205  10.50000  0.05    0.40
Q42   1   0.2424  0.2500  0.9139  10.50000  0.05    0.40
Q43   1   0.0088  0.3936  0.5616  11.00000  0.05    0.40
Q44   1   0.3805  0.2500  0.8242  10.50000  0.05    0.40
Q45   1   0.1811  0.7500  0.7597  10.50000  0.05    0.40
Q46   1   0.1870  0.2500  1.0483  10.50000  0.05    0.40
Q47   1   0.0386  0.2500  0.8471  10.50000  0.05    0.39
Q48   1   0.0712  0.3449  0.6351  11.00000  0.05    0.39
Q49   1   0.1501  0.3399  0.7305  11.00000  0.05    0.39
Q50   1  -0.0483  0.2500  1.1313  10.50000  0.05    0.39
Q51   1   0.0376  0.3311  0.6387  11.00000  0.05    0.39
Q52   1   0.2162  0.3871  0.8475  11.00000  0.05    0.39
Q53   1  -0.0690  0.2500  0.7929  10.50000  0.05    0.39
Q54   1   0.0166  0.2500  0.9909  10.50000  0.05    0.39
Q55   1   0.2169  0.2500  0.4450  10.50000  0.05    0.38
Q56   1   0.2951  0.3985  0.8235  11.00000  0.05    0.38
Q57   1   0.1611  0.3393  0.7016  11.00000  0.05    0.38
Q58   1  -0.1448  0.2500  0.9911  10.50000  0.05    0.38
Q59   1   0.1497  0.3921  1.0392  11.00000  0.05    0.38
Q60   1  -0.2497  0.2500  0.9094  10.50000  0.05    0.38
Q61   1  -0.1094 -0.2500  0.9068  10.50000  0.05    0.38
Q62   1  -0.1516  0.2500  0.9019  10.50000  0.05    0.38
Q63   1  -0.0920  0.2500  0.7612  10.50000  0.05    0.37
Q64   1   0.1804  0.2324  0.8531  11.00000  0.05    0.37
Q65   1  -0.0227  0.2500  1.1204  10.50000  0.05    0.37
Q66   1   0.0109  0.3603  0.9349  11.00000  0.05    0.37
Q67   1   0.4231  0.2500  0.8984  10.50000  0.05    0.37
Q68   1   0.0979  0.2500  1.0423  10.50000  0.05    0.37
Q69   1  -0.1662  0.2500  1.0813  10.50000  0.05    0.37
Q70   1  -0.1271  0.2500  1.1149  10.50000  0.05    0.37
Q71   1   0.0494  0.3393  0.6032  11.00000  0.05    0.37
Q72   1  -0.1786  0.3038  1.0805  11.00000  0.05    0.37
Q73   1   0.1173  0.2500  0.7184  10.50000  0.05    0.37
Q74   1   0.1300  0.5586  0.5707  11.00000  0.05    0.37
Q75   1  -0.0986  0.4637  0.9860  11.00000  0.05    0.36
Q76   1  -0.1597  0.3596  1.0837  11.00000  0.05    0.36
Q77   1   0.1080  0.2500  0.6631  10.50000  0.05    0.36
Q78   1   0.1217  0.4629  0.7501  11.00000  0.05    0.36
Q79   1   0.3178  0.2500  0.9209  10.50000  0.05    0.36
Q80   1   0.1763  0.2262  0.8176  11.00000  0.05    0.36
Q81   1   0.0823  0.1854  0.8059  11.00000  0.05    0.36
Q82   1   0.1321  0.2758  0.7684  11.00000  0.05    0.36
Q83   1   0.1015  0.3532  0.7285  11.00000  0.05    0.35
Q84   1   0.0293  0.2500  0.3386  10.50000  0.05    0.35
Q85   1   0.1890  0.4855  0.7113  11.00000  0.05    0.35
Q86   1   0.1361  0.3127  0.4298  11.00000  0.05    0.35
Q87   1   0.2212  0.3937  0.5875  11.00000  0.05    0.35
Q88   1   0.1989  0.3832  0.9504  11.00000  0.05    0.35
Q89   1   0.2473  0.2500  0.8013  10.50000  0.05    0.35
Q90   1   0.0855  0.4682  0.7569  11.00000  0.05    0.35
Q91   1  -0.1302  0.2500  0.7932  10.50000  0.05    0.35
Q92   1   0.2483  0.3451  0.9579  11.00000  0.05    0.35
Q93   1   0.1220  0.5528  0.5259  11.00000  0.05    0.35
Q94   1  -0.0624  0.4617  1.0107  11.00000  0.05    0.35
Q95   1   0.4069  0.2500  0.8608  10.50000  0.05    0.35
Q96   1  -0.0913  0.0505  1.0805  11.00000  0.05    0.35
Q97   1  -0.1108  0.3576  0.6367  11.00000  0.05    0.35
Q98   1  -0.1836  0.3691  0.9004  11.00000  0.05    0.35
Q99   1  -0.0043  0.3409  0.8217  11.00000  0.05    0.34
Q100  1   0.1315  0.4112  0.7238  11.00000  0.05    0.34
Q101  1   0.3006  0.5408  0.8913  11.00000  0.05    0.34
Q102  1   0.0007  0.6162  0.7350  11.00000  0.05    0.34
Q103  1   0.1884  0.3077  0.8927  11.00000  0.05    0.34
Q104  1   0.1918  0.3712  0.8990  11.00000  0.05    0.34
Q105  1   0.2897  0.5419  0.6708  11.00000  0.05    0.34
Q106  1  -0.0283  0.4912  0.7943  11.00000  0.05    0.34
Q107  1   0.1874  0.2321  0.8122  11.00000  0.05    0.34
Q108  1   0.0317  0.2867  0.9854  11.00000  0.05    0.34
Q109  1  -0.2277  0.3036  0.8072  11.00000  0.05    0.33
Q110  1   0.1622  0.3552  0.9464  11.00000  0.05    0.33
Q111  1   0.2670  0.4471  0.7501  11.00000  0.05    0.33
Q112  1  -0.0290  0.2500  0.9802  10.50000  0.05    0.33
Q113  1   0.1279  0.4508  0.6031  11.00000  0.05    0.33
Q114  1  -0.2018  0.2500  0.9035  10.50000  0.05    0.33
Q115  1   0.3580  0.2500  1.1506  10.50000  0.05    0.33
Q116  1  -0.0094  0.2500  0.7081  10.50000  0.05    0.33
Q117  1   0.0176  0.1824  1.0609  11.00000  0.05    0.33
Q118  1  -0.0594  0.3868  0.8206  11.00000  0.05    0.33
Q119  1   0.1698  0.4883  0.4991  11.00000  0.05    0.33
Q120  1   0.1092  0.2500  0.5516  10.50000  0.05    0.33
Q121  1  -0.1016  0.0556  0.9263  11.00000  0.05    0.33
Q122  1  -0.1377  0.0011  1.0325  11.00000  0.05    0.33
Q123  1   0.2168  0.6559  0.7153  11.00000  0.05    0.33
Q124  1  -0.0280  0.2500  1.0290  10.50000  0.05    0.32
Q125  1   0.0268  0.1302  1.0697  11.00000  0.05    0.32
Q126  1  -0.0587 -0.3572  0.8859  11.00000  0.05    0.32
Q127  1  -0.1803  0.4626  1.0286  11.00000  0.05    0.32
Q128  1  -0.1012  0.2044  0.7973  11.00000  0.05    0.32
Q129  1   0.3202  0.3200  0.7974  11.00000  0.05    0.32
Q130  1   0.2703  0.3822  0.8194  11.00000  0.05    0.32
Q131  1   0.1361  0.3676  0.7672  11.00000  0.05    0.32
Q132  1  -0.1535  0.2500  1.2093  10.50000  0.05    0.32
Q133  1   0.2123  0.5299  0.5582  11.00000  0.05    0.32
Q134  1   0.0403  0.3638  0.8615  11.00000  0.05    0.32
Q135  1   0.4368  0.2500  1.0420  10.50000  0.05    0.32
Q136  1  -0.1780  0.2500  1.1057  10.50000  0.05    0.32
Q137  1  -0.1912 -0.2500  0.6997  10.50000  0.05    0.32
Q138  1   0.0949  0.2981  0.7034  11.00000  0.05    0.32
Q139  1   0.1875  0.2500  0.7659  10.50000  0.05    0.32
Q140  1  -0.0419  0.3969  0.6911  11.00000  0.05    0.32
Q141  1   0.2853  0.3158  0.7615  11.00000  0.05    0.32
Q142  1   0.1622  0.2500  0.4846  10.50000  0.05    0.32
Q143  1  -0.0720  0.2500  1.2013  10.50000  0.05    0.32
Q144  1   0.2275  0.6422  0.7122  11.00000  0.05    0.32
Q145  1   0.1055  0.2500  0.3860  10.50000  0.05    0.32
Q146  1  -0.1404 -0.0846  0.7386  11.00000  0.05    0.32
Q147  1   0.1902  0.3568  1.0386  11.00000  0.05    0.32
Q148  1   0.1402  0.3246  0.8805  11.00000  0.05    0.32
Q149  1  -0.1080 -0.0894  0.7908  11.00000  0.05    0.32
Q150  1  -0.0999  0.0548  1.1688  11.00000  0.05    0.31
